c --- [ banner ] -------------------------------------------------------------
c 
c CaDiCaL Radically Simplified CDCL SAT Solver
c Copyright (c) 2016-2021 A. Biere, M. Fleury, N. Froleyks
c 
c Version 1.5.2 a5f15211db36c3956764e18194dd5bd63bf3b5e6
c g++ (GCC) 9.3.0 -Wall -Wextra -O3 -DNDEBUG
c Fri Oct 21 01:27:37 EDT 2022 Linux gra-login3 3.10.0-1160.66.1.el7.x86_64 x86_64
c 
c --- [ limit ] --------------------------------------------------------------
c 
c setting conflict limit to 200000 conflicts (due to '200000')
c 
c --- [ parsing input ] ------------------------------------------------------
c 
c reading DIMACS file from '33.cubes6354.adj'
c opening file to read '33.cubes6354.adj'
c found 'p cnf 6160 1595474' header
c parsed 1595474 clauses in 19.44 seconds process time
c closing file '33.cubes6354.adj'
c after reading 1457566768 bytes 1390.0 MB
c 
c --- [ options ] ------------------------------------------------------------
c 
c all options are set to their default value
c 
c --- [ solving ] ------------------------------------------------------------
c 
c time measured in process time since initialization
c 
c  seconds    reductions  redundant   irredundant
c          MB     restarts       trail       variables
c            level   conflicts       glue         remaining
c 
c * 19.44 1379  0 0   0    0    0  0% 0 1595422 2391 39%
c { 21.85 1463  0 0   0    0    0  0% 0 1595422 2391 39%
c i 21.86 1464  1 0   0    1    0 12% 0 1595422 2380 39%
c i 24.06 1501 519 0   2   29   26 30% 5 1595422 2369 38%
c i 26.13 1514 209 0  14   87   71 27% 19 1595422 2346 38%
c i 26.38 1515 198 0  17  102   81 27% 25 1595422 2345 38%
c i 26.38 1515 196 0  17  104   82 27% 25 1595422 2344 38%
c i 27.00 1520 163 0  26  135  104 26% 24 1595422 2331 38%
c i 27.13 1520 161 0  26  142  110 26% 23 1595422 2330 38%
c i 27.90 1522 154 0  29  168  133 26% 25 1595422 2329 38%
c i 28.29 1524 145 0  31  181  142 26% 24 1595422 2328 38%
c i 28.62 1524 142 0  33  194  154 26% 25 1595422 2322 38%
c i 28.64 1524 141 0  34  195  154 26% 25 1595422 2315 38%
c i 28.91 1525 140 0  35  200  158 26% 25 1595422 2314 38%
c i 29.40 1526 109 0  38  267  195 25% 21 1595422 2313 38%
c - 33.21 1490 100 1  38  300  222 25% 21 241938 2313 38%
c i 34.10 1403 94 1  50  347  267 26% 23 241938 2312 38%
c i 34.10 1403 94 1  50  348  267 26% 23 241938 2311 38%
c i 34.92 1403 83 1  64  453  354 27% 23 241938 2310 38%
c i 34.93 1403 83 1  64  455  355 27% 23 241938 2309 37%
c 
c  seconds    reductions  redundant   irredundant
c          MB     restarts       trail       variables
c            level   conflicts       glue         remaining
c 
c i 35.14 1403 80 1  68  508  402 27% 23 241938 2308 37%
c i 35.45 1403 79 1  75  545  436 28% 24 241938 2307 37%
c i 35.47 1403 79 1  75  546  436 28% 24 241938 2306 37%
c i 35.49 1403 79 1  76  549  438 28% 24 241938 2305 37%
c i 35.88 1403 81 1  78  597  479 28% 24 241938 2303 37%
c i 37.92 1404 77 1 112  817  660 28% 26 241938 2300 37%
c i 38.41 1404 79 1 116  944  758 28% 25 241938 2299 37%
c i 38.48 1404 79 1 118  948  761 28% 25 241938 2298 37%
c i 38.48 1404 80 1 118  952  763 28% 25 241938 2296 37%
c } 38.70 1404 80 1 131 1000  805 28% 26 241938 2296 37%
c [ 38.70 1404  0 1 131 1000  805  0% 0 241938 2296 37%
c O 38.72 1404 22 1 131 1002  807 24% 2 241938 2296 37%
c - 39.62 1453 21 2 131 1131  817 32% 15 241892 2296 37%
c i 39.84 1453 22 2 131 1364 1007 32% 16 241892 2295 37%
c i 39.93 1453 22 2 131 1480 1090 32% 17 241892 2294 37%
c ] 40.01 1453 22 2 131 1604 1167 32% 18 241892 2294 37%
c 1 40.01 1453 22 2 131 1604 1167 32% 18 241892 2294 37%
c 
c --- [ writing output ] -----------------------------------------------------
c 
c writing simplified CNF to DIMACS file 'simp/33.cubes6354.adj.simp1'
c * 40.01 1453 22 2 131 1604 1167 32% 18 241892 2294 37%
c opening file to write 'simp/33.cubes6354.adj.simp1'
c writing 'p cnf 6160 241887' header
c closing file 'simp/33.cubes6354.adj.simp1'
c after writing 118435214 bytes 112.9 MB
c wrote 241887 clauses in 0.89 seconds process time
c 
c --- [ writing extension ] --------------------------------------------------
c 
c writing extension stack to 'simp/33.cubes6354.adj.ext1'
c opening file to write 'simp/33.cubes6354.adj.ext1'
c closing file 'simp/33.cubes6354.adj.ext1'
c after writing 10664 bytes 0.0 MB
c wrote 722 witnesses in 0.00 seconds process time
c 
c --- [ result ] -------------------------------------------------------------
c 
s SATISFIABLE
c 
c --- [ run-time profiling ] -------------------------------------------------
c 
c process time taken by individual solving procedures
c (percentage relative to process time for solving)
c 
c        20.56  100.00% search
c        19.44   94.53% parse
c        16.85   81.96% unstable
c         2.41   11.71% lucky
c         1.30    6.33% stable
c         0.00    0.00% simplify
c   =================================
c        20.57   50.28% solve
c 
c last line shows process time for solving
c (percentage relative to total process time)
c 
c --- [ statistics ] ---------------------------------------------------------
c 
c chronological:               533        33.23 %  of conflicts
c conflicts:                  1604        78.00    per second
c decisions:                 17621       856.84    per second
c fixed:                       722        11.72 %  of all variables
c learned:                    1568        97.76 %  per conflict
c learned_lits:             219037       100.00 %  learned literals
c minimized:                     0         0.00 %  learned literals
c shrunken:                 119701        54.65 %  learned literals
c minishrunken:              20955         9.57 %  learned literals
c propagations:             302773         0.01 M  per second
c reduced:                      93         5.80 %  per conflict
c rephased:                      1      1604.00    interval
c restarts:                    131        12.24    interval
c stabilizing:                   1        37.66 %  of conflicts
c subsumed:                    272         0.01 %  of all clauses
c 
c seconds are measured in process time for solving
c 
c --- [ resources ] ----------------------------------------------------------
c 
c total process time since initialization:        40.90    seconds
c total real time since initialization:           41.07    seconds
c maximum resident set size of process:         1525.74    MB
c 
c --- [ shutting down ] ------------------------------------------------------
c 
c exit 10
WARNING! DIMACS header mismatch: wrong number of variables.
============================[ Problem Statistics ]=============================
|                                                                             |
|  Number of variables:          6120                                         |
|  Number of clauses:          241887                                         |
|  Parse time:                   1.60 s                                       |
|  Simplification time:          0.03 s                                       |
|                                                                             |
============================[ Search Statistics ]====================================================
| Conflicts |          ORIGINAL         |          LEARNT          | Num Sols |      SUBGRAPHS      |
|           |    Vars  Clauses Literals |    Limit  Clauses Lit/Cl |          | Canonical Noncanon. |
=====================================================================================================
|       103 |    6027   241890 25646609 |     2000      102    105 |        0 |        21         3 |
|       257 |    6027   241894 25646647 |     2000      256     88 |        0 |        31         7 |
|       577 |    6027   241989 25648224 |     2000      576     86 |        0 |        72       102 |
|       942 |    6021   242017 25648804 |     2000      935     87 |        0 |        99       130 |
|      1479 |    6019   242048 25649912 |     2000     1470     96 |        0 |       112       161 |
|      2249 |    6019   242059 25650339 |     3599     1248     60 |        0 |       130       172 |
|      3437 |    6016   242108 25651790 |     3599     2433     89 |        0 |       148       221 |
|      5174 |    6012   242137 25652483 |     4998     2371     58 |        0 |       181       250 |
|      7910 |    6011   242311 25655478 |     6304     2614     37 |        0 |       276       424 |
|     17250 |    6009   247807 25760806 |     8785     5035     16 |        0 |      1028      5920 |
|     79358 |    6009   304149 26852258 |    18412    15170     17 |        0 |     12992     62262 |
|    122862 |    6008   339004 27516271 |    23210    18272     15 |        0 |     16823     97117 |
|    291767 |    6008   494877 30296888 |    36405    26572     14 |        0 |     32341    253048 |
|    514467 |    6007   698113 33508896 |    48409    40274     13 |        0 |     46858    456287 |
|    847256 |    6006  1001707 37868194 |    62812    43068     13 |        0 |     63391    759884 |
|   1005442 |    6004  1116104 39478351 |    68831    38273     18 |        0 |     67512    874281 |
=====================================================================================================
Number of solutions   : 0
Canonical subgraphs   : 71121          (22 /sec)
          order  3    : 1              (200000 /sec)
          order  4    : 1              (500000 /sec)
          order  5    : 1              (200000 /sec)
          order  6    : 1              (52632 /sec)
          order  7    : 1              (8065 /sec)
          order  8    : 2              (1386 /sec)
          order  9    : 6              (315 /sec)
          order 10    : 30             (108 /sec)
          order 11    : 115            (32 /sec)
          order 12    : 628            (10 /sec)
          order 13    : 3780           (12 /sec)
          order 14    : 63195          (24 /sec)
          order 15    : 3249           (14 /sec)
          order 16    : 89             (6 /sec)
          order 17    : 20             (4 /sec)
          order 18    : 2              (3 /sec)
          order 19    : 0              (-nan /sec)
          order 20    : 0              (-nan /sec)
          order 21    : 0              (-nan /sec)
          order 22    : 0              (-nan /sec)
Noncanonical subgraphs: 1004104        (168 /sec)
          order  3    : 0              (-nan /sec)
          order  4    : 0              (-nan /sec)
          order  5    : 0              (-nan /sec)
          order  6    : 0              (-nan /sec)
          order  7    : 0              (-nan /sec)
          order  8    : 0              (-nan /sec)
          order  9    : 0              (-nan /sec)
          order 10    : 0              (-nan /sec)
          order 11    : 0              (-nan /sec)
          order 12    : 0              (-nan /sec)
          order 13    : 9192           (6197 /sec)
          order 14    : 149444         (852 /sec)
          order 15    : 835854         (146 /sec)
          order 16    : 9444           (145 /sec)
          order 17    : 162            (132 /sec)
          order 18    : 7              (49 /sec)
          order 19    : 1              (14 /sec)
          order 20    : 0              (-nan /sec)
          order 21    : 0              (-nan /sec)
Canonicity checking   : 3245.02 s
Noncanonicity checking: 5964.02 s
Total canonicity time : 9209.04 s
database reductions   : 60
restarts              : 2237
conflicts             : 1190255        (124 /sec)
decisions             : 2360687        (0.00 % random) (246 /sec)
propagations          : 132397843      (13815 /sec)
conflict literals     : 26713699       (61.73 % deleted)
actual reward         : 0.042992
Memory used           : 505.00 MB
CPU time              : 9583.54 s

UNSATISFIABLE
